Traveling Salesman Problem/TSP_generados/Aleatorio1620390945_10.tsp
NAME: Aleatorio1620390945_10.tsp
COMMENT: Randomly generated scenario
TYPE: TSP
DIMENSION: 10
EDGE_WEIGHT_TYPE: ATT
NODE_COORD_SECTION
1 3.12 29.64
2 39.67 34.9
3 9.34 28.44
4 30.34 34.8
5 21.49 34.37
6 20.15 0.49
7 36.07 14.76
8 10.97 0.95
9 41.18 17.68
10 4.84 7.49
