Traveling Salesman Problem/TSP_generados/Aleatorio1620390945_10.opt.tour
NAME: Aleatorio1620390945_10.opt.tour
COMMENT: Optimal solution for Aleatorio1620390945_10 (122.96843355634684)
TYPE: TOUR
DIMENSION: 10
TOUR_SECTION
1 10 8 6 7 9 2 4 5 3
-1
EOF
